Maximize
 0
Subject To
 epc_0!1: -50.64765220423724 y_1!1_2!1 +43.09636164203431 y_1!2_2!1 +79.66641553761437 y_1!3_2!1 +5.743003035223595 y_1!4_2!1 +82.72762192092733 y_1!5_2!1 -75.24151732393945 y_1!6_2!1 +69.78625594178274 y_1!1_2!2 +66.10969040648246 y_1!2_2!2 +85.54094561350828 y_1!3_2!2 +83.27900816050166 y_1!4_2!2 +75.53186336057175 y_1!5_2!2 +26.48232078423159 y_1!6_2!2 +69.50315660524805 y_1!1_2!3 +42.38326344137022 y_1!2_2!3 -82.85780146981918 y_1!3_2!3 +41.82451226891993 y_1!4_2!3 +90.14206693170118 y_1!5_2!3 -93.73915776563886 y_1!6_2!3 -76.67710097808735 y_1!1_2!4 +77.99294146718049 y_1!2_2!4 +7.586820084020246 y_1!3_2!4 +34.96480089350706 y_1!4_2!4 +68.77009046191523 y_1!5_2!4 -12.198187315610951 y_1!6_2!4 -31.0046988016702 y_1!1_2!5 -45.06949946277512 y_1!2_2!5 +50.91545053296909 y_1!3_2!5 -28.964869891279108 y_1!4_2!5 -89.71916544502318 y_1!5_2!5 -35.229677450389005 y_1!6_2!5 +28.548665035706165 y_1!1_2!6 +3.5629243712848933 y_1!2_2!6 -75.20549526709648 y_1!3_2!6 -53.499492438240395 y_1!4_2!6 -5.026402174126574 y_1!5_2!6 +70.71776740614152 y_1!6_2!6 + lambda_0!1 - mu_0 = 0
 epc_0!2: +86.67649265846131 y_1!1_2!1 -53.27959997887177 y_1!2_2!1 +55.66995602282671 y_1!3_2!1 -43.44284750757987 y_1!4_2!1 +57.61387476036444 y_1!5_2!1 -46.26156603251468 y_1!6_2!1 -64.3109780317426 y_1!1_2!2 -40.47939736675033 y_1!2_2!2 -76.0435367709058 y_1!3_2!2 +42.58614479329333 y_1!4_2!2 +67.60965564966293 y_1!5_2!2 -70.47018348357443 y_1!6_2!2 +0.5821684283342705 y_1!1_2!3 -92.73832229198705 y_1!2_2!3 -61.84113615133813 y_1!3_2!3 +87.18164557317888 y_1!4_2!3 +99.46469329925665 y_1!5_2!3 +48.831983674383366 y_1!6_2!3 -36.81798319030889 y_1!1_2!4 -40.16449257067871 y_1!2_2!4 -20.426222230757347 y_1!3_2!4 +79.27896902637306 y_1!4_2!4 +12.866567907301047 y_1!5_2!4 +93.3025806947532 y_1!6_2!4 +70.27398137293821 y_1!1_2!5 +4.508263939882212 y_1!2_2!5 -12.58252938198838 y_1!3_2!5 -99.09930342024515 y_1!4_2!5 +84.628241990091 y_1!5_2!5 +65.42684337656095 y_1!6_2!5 -15.409543432099156 y_1!1_2!6 -46.21876714347386 y_1!2_2!6 -10.98751786776917 y_1!3_2!6 -34.00426513383421 y_1!4_2!6 +50.489517986088885 y_1!5_2!6 +66.43422404230193 y_1!6_2!6 + lambda_0!2 - mu_0 = 0
 epc_0!3: -6.927898444913353 y_1!1_2!1 -77.99961670269778 y_1!2_2!1 -27.022199325201 y_1!3_2!1 +84.86518906365163 y_1!4_2!1 -37.35981794809808 y_1!5_2!1 +36.75108703428765 y_1!6_2!1 -63.144952115984324 y_1!1_2!2 -72.88973972344739 y_1!2_2!2 +88.03146583298499 y_1!3_2!2 +44.57632606288283 y_1!4_2!2 +65.39654342896196 y_1!5_2!2 -56.524191919149835 y_1!6_2!2 +28.725988697308537 y_1!1_2!3 +49.187271697741096 y_1!2_2!3 +25.566539330558243 y_1!3_2!3 -34.134959966940755 y_1!4_2!3 -99.66962254610775 y_1!5_2!3 +75.08332639100362 y_1!6_2!3 +24.305696008034644 y_1!1_2!4 +60.2457875813372 y_1!2_2!4 -2.458258634411422 y_1!3_2!4 -80.85543779697726 y_1!4_2!4 -83.26944454317831 y_1!5_2!4 +35.841811060793134 y_1!6_2!4 +27.62184863312281 y_1!1_2!5 -26.913997980061183 y_1!2_2!5 -13.828551918456682 y_1!3_2!5 +17.764085712818044 y_1!4_2!5 -60.46222344312822 y_1!5_2!5 -35.570073618605136 y_1!6_2!5 +6.204989411570978 y_1!1_2!6 -44.26175995667958 y_1!2_2!6 +83.92532906705111 y_1!3_2!6 +13.652529597645824 y_1!4_2!6 +44.837463742569895 y_1!5_2!6 -8.41554432950835 y_1!6_2!6 + lambda_0!3 - mu_0 = 0
 epc_0!4: -52.84149513779634 y_1!1_2!1 -71.43109353759725 y_1!2_2!1 -46.74917886468559 y_1!3_2!1 +74.26437687907355 y_1!4_2!1 +22.53047748109698 y_1!5_2!1 -34.57661520780168 y_1!6_2!1 +27.86280092845628 y_1!1_2!2 -37.7787244833248 y_1!2_2!2 +40.04866076440797 y_1!3_2!2 +12.569308001364732 y_1!4_2!2 -88.39360440512205 y_1!5_2!2 +92.13259982162606 y_1!6_2!2 -53.23616676329777 y_1!1_2!3 +36.55481903042963 y_1!2_2!3 -92.60212270970014 y_1!3_2!3 +13.771686793636562 y_1!4_2!3 -91.2391535444943 y_1!5_2!3 -70.97797882645547 y_1!6_2!3 -5.8157898506593995 y_1!1_2!4 -68.85856714585344 y_1!2_2!4 -55.44809050923099 y_1!3_2!4 +95.95048598911126 y_1!4_2!4 -23.812824359281464 y_1!5_2!4 -98.97433301928476 y_1!6_2!4 +9.898085621220233 y_1!1_2!5 +75.86802179738646 y_1!2_2!5 -45.72115433089286 y_1!3_2!5 +12.4609237765779 y_1!4_2!5 -62.034706644973056 y_1!5_2!5 -46.564979609275106 y_1!6_2!5 +48.39462735825364 y_1!1_2!6 +38.5348867898428 y_1!2_2!6 +88.72100627958457 y_1!3_2!6 -15.191424842574094 y_1!4_2!6 -50.10981533870116 y_1!5_2!6 -98.08226262092658 y_1!6_2!6 + lambda_0!4 - mu_0 = 0
 epc_0!5: -61.180246318336316 y_1!1_2!1 -55.20611415543024 y_1!2_2!1 +32.846146257954985 y_1!3_2!1 +72.44882586960992 y_1!4_2!1 +15.262605001283518 y_1!5_2!1 +76.6577085990418 y_1!6_2!1 +99.91043426446694 y_1!1_2!2 -16.662755692914203 y_1!2_2!2 +82.88956800353176 y_1!3_2!2 -50.88311024950303 y_1!4_2!2 -26.422336619631466 y_1!5_2!2 +27.026380383692114 y_1!6_2!2 -93.05558846630663 y_1!1_2!3 -22.248450396251073 y_1!2_2!3 -98.50182866172442 y_1!3_2!3 -96.21614861321439 y_1!4_2!3 +98.49126241604313 y_1!5_2!3 -29.296869650561547 y_1!6_2!3 +70.54904088992001 y_1!1_2!4 -52.00285660356978 y_1!2_2!4 +21.677241641268637 y_1!3_2!4 -48.764509694331394 y_1!4_2!4 +15.640925300541625 y_1!5_2!4 -1.9203292463649149 y_1!6_2!4 -34.00249933073461 y_1!1_2!5 +2.524958356484234 y_1!2_2!5 -1.39459428343784 y_1!3_2!5 +24.93395737880067 y_1!4_2!5 -43.7810352372445 y_1!5_2!5 -30.164311528534583 y_1!6_2!5 +54.81917279335957 y_1!1_2!6 +79.12817290881137 y_1!2_2!6 +22.619031407593383 y_1!3_2!6 -94.76352387817124 y_1!4_2!6 +55.22129293246522 y_1!5_2!6 -33.05768600931593 y_1!6_2!6 + lambda_0!5 - mu_0 = 0
 epc_0!6: +55.85339515817836 y_1!1_2!1 -51.105096265909445 y_1!2_2!1 -51.955482194235955 y_1!3_2!1 -28.469239184673796 y_1!4_2!1 +88.02598674802206 y_1!5_2!1 -66.77906374901075 y_1!6_2!1 -31.033015387515462 y_1!1_2!2 -68.1581518739043 y_1!2_2!2 -81.26915970147519 y_1!3_2!2 -16.1129022515438 y_1!4_2!2 -14.707362717554957 y_1!5_2!2 +68.96376639713179 y_1!6_2!2 +59.73095243145872 y_1!1_2!3 -81.79861767330323 y_1!2_2!3 +98.93376051064305 y_1!3_2!3 -82.2044792515718 y_1!4_2!3 +11.134841392658032 y_1!5_2!3 +90.50950217497711 y_1!6_2!3 +99.62374315116341 y_1!1_2!4 +40.80926903235215 y_1!2_2!4 -76.55107852847844 y_1!3_2!4 +3.407999452888191 y_1!4_2!4 +28.660117988406313 y_1!5_2!4 -79.65132044987122 y_1!6_2!4 +29.612756610471678 y_1!1_2!5 -11.645659366877666 y_1!2_2!5 -22.916399883843326 y_1!3_2!5 -33.97269643093786 y_1!4_2!5 +38.42346500895911 y_1!5_2!5 -90.41978983767997 y_1!6_2!5 +34.699443785330146 y_1!1_2!6 -83.86662641532394 y_1!2_2!6 -69.24445570857011 y_1!3_2!6 +95.21430746833772 y_1!4_2!6 -43.652701744627606 y_1!5_2!6 -38.05286496667393 y_1!6_2!6 + lambda_0!6 - mu_0 = 0
 dc_0: x_0!1 + x_0!2 + x_0!3 + x_0!4 + x_0!5 + x_0!6 = 1
 bc_0!1: lambda_0!1 +299.94999985684353 x_0!1 <= 299.94999985684353
 bc_0!2: lambda_0!2 +299.94999985684353 x_0!2 <= 299.94999985684353
 bc_0!3: lambda_0!3 +299.94999985684353 x_0!3 <= 299.94999985684353
 bc_0!4: lambda_0!4 +299.94999985684353 x_0!4 <= 299.94999985684353
 bc_0!5: lambda_0!5 +299.94999985684353 x_0!5 <= 299.94999985684353
 bc_0!6: lambda_0!6 +299.94999985684353 x_0!6 <= 299.94999985684353
 sum_0!1: y_1!1_2!1 - x_1!1 - x_2!1 >= -1
 idk_0!1!1: y_1!1_2!1 - x_1!1 <= 0
 idk_0!1!2: y_1!1_2!1 - x_2!1 <= 0
 sum_0!2: y_1!2_2!1 - x_1!2 - x_2!1 >= -1
 idk_0!2!1: y_1!2_2!1 - x_1!2 <= 0
 idk_0!2!2: y_1!2_2!1 - x_2!1 <= 0
 sum_0!3: y_1!3_2!1 - x_1!3 - x_2!1 >= -1
 idk_0!3!1: y_1!3_2!1 - x_1!3 <= 0
 idk_0!3!2: y_1!3_2!1 - x_2!1 <= 0
 sum_0!4: y_1!4_2!1 - x_1!4 - x_2!1 >= -1
 idk_0!4!1: y_1!4_2!1 - x_1!4 <= 0
 idk_0!4!2: y_1!4_2!1 - x_2!1 <= 0
 sum_0!5: y_1!5_2!1 - x_1!5 - x_2!1 >= -1
 idk_0!5!1: y_1!5_2!1 - x_1!5 <= 0
 idk_0!5!2: y_1!5_2!1 - x_2!1 <= 0
 sum_0!6: y_1!6_2!1 - x_1!6 - x_2!1 >= -1
 idk_0!6!1: y_1!6_2!1 - x_1!6 <= 0
 idk_0!6!2: y_1!6_2!1 - x_2!1 <= 0
 sum_0!7: y_1!1_2!2 - x_1!1 - x_2!2 >= -1
 idk_0!7!1: y_1!1_2!2 - x_1!1 <= 0
 idk_0!7!2: y_1!1_2!2 - x_2!2 <= 0
 sum_0!8: y_1!2_2!2 - x_1!2 - x_2!2 >= -1
 idk_0!8!1: y_1!2_2!2 - x_1!2 <= 0
 idk_0!8!2: y_1!2_2!2 - x_2!2 <= 0
 sum_0!9: y_1!3_2!2 - x_1!3 - x_2!2 >= -1
 idk_0!9!1: y_1!3_2!2 - x_1!3 <= 0
 idk_0!9!2: y_1!3_2!2 - x_2!2 <= 0
 sum_0!10: y_1!4_2!2 - x_1!4 - x_2!2 >= -1
 idk_0!10!1: y_1!4_2!2 - x_1!4 <= 0
 idk_0!10!2: y_1!4_2!2 - x_2!2 <= 0
 sum_0!11: y_1!5_2!2 - x_1!5 - x_2!2 >= -1
 idk_0!11!1: y_1!5_2!2 - x_1!5 <= 0
 idk_0!11!2: y_1!5_2!2 - x_2!2 <= 0
 sum_0!12: y_1!6_2!2 - x_1!6 - x_2!2 >= -1
 idk_0!12!1: y_1!6_2!2 - x_1!6 <= 0
 idk_0!12!2: y_1!6_2!2 - x_2!2 <= 0
 sum_0!13: y_1!1_2!3 - x_1!1 - x_2!3 >= -1
 idk_0!13!1: y_1!1_2!3 - x_1!1 <= 0
 idk_0!13!2: y_1!1_2!3 - x_2!3 <= 0
 sum_0!14: y_1!2_2!3 - x_1!2 - x_2!3 >= -1
 idk_0!14!1: y_1!2_2!3 - x_1!2 <= 0
 idk_0!14!2: y_1!2_2!3 - x_2!3 <= 0
 sum_0!15: y_1!3_2!3 - x_1!3 - x_2!3 >= -1
 idk_0!15!1: y_1!3_2!3 - x_1!3 <= 0
 idk_0!15!2: y_1!3_2!3 - x_2!3 <= 0
 sum_0!16: y_1!4_2!3 - x_1!4 - x_2!3 >= -1
 idk_0!16!1: y_1!4_2!3 - x_1!4 <= 0
 idk_0!16!2: y_1!4_2!3 - x_2!3 <= 0
 sum_0!17: y_1!5_2!3 - x_1!5 - x_2!3 >= -1
 idk_0!17!1: y_1!5_2!3 - x_1!5 <= 0
 idk_0!17!2: y_1!5_2!3 - x_2!3 <= 0
 sum_0!18: y_1!6_2!3 - x_1!6 - x_2!3 >= -1
 idk_0!18!1: y_1!6_2!3 - x_1!6 <= 0
 idk_0!18!2: y_1!6_2!3 - x_2!3 <= 0
 sum_0!19: y_1!1_2!4 - x_1!1 - x_2!4 >= -1
 idk_0!19!1: y_1!1_2!4 - x_1!1 <= 0
 idk_0!19!2: y_1!1_2!4 - x_2!4 <= 0
 sum_0!20: y_1!2_2!4 - x_1!2 - x_2!4 >= -1
 idk_0!20!1: y_1!2_2!4 - x_1!2 <= 0
 idk_0!20!2: y_1!2_2!4 - x_2!4 <= 0
 sum_0!21: y_1!3_2!4 - x_1!3 - x_2!4 >= -1
 idk_0!21!1: y_1!3_2!4 - x_1!3 <= 0
 idk_0!21!2: y_1!3_2!4 - x_2!4 <= 0
 sum_0!22: y_1!4_2!4 - x_1!4 - x_2!4 >= -1
 idk_0!22!1: y_1!4_2!4 - x_1!4 <= 0
 idk_0!22!2: y_1!4_2!4 - x_2!4 <= 0
 sum_0!23: y_1!5_2!4 - x_1!5 - x_2!4 >= -1
 idk_0!23!1: y_1!5_2!4 - x_1!5 <= 0
 idk_0!23!2: y_1!5_2!4 - x_2!4 <= 0
 sum_0!24: y_1!6_2!4 - x_1!6 - x_2!4 >= -1
 idk_0!24!1: y_1!6_2!4 - x_1!6 <= 0
 idk_0!24!2: y_1!6_2!4 - x_2!4 <= 0
 sum_0!25: y_1!1_2!5 - x_1!1 - x_2!5 >= -1
 idk_0!25!1: y_1!1_2!5 - x_1!1 <= 0
 idk_0!25!2: y_1!1_2!5 - x_2!5 <= 0
 sum_0!26: y_1!2_2!5 - x_1!2 - x_2!5 >= -1
 idk_0!26!1: y_1!2_2!5 - x_1!2 <= 0
 idk_0!26!2: y_1!2_2!5 - x_2!5 <= 0
 sum_0!27: y_1!3_2!5 - x_1!3 - x_2!5 >= -1
 idk_0!27!1: y_1!3_2!5 - x_1!3 <= 0
 idk_0!27!2: y_1!3_2!5 - x_2!5 <= 0
 sum_0!28: y_1!4_2!5 - x_1!4 - x_2!5 >= -1
 idk_0!28!1: y_1!4_2!5 - x_1!4 <= 0
 idk_0!28!2: y_1!4_2!5 - x_2!5 <= 0
 sum_0!29: y_1!5_2!5 - x_1!5 - x_2!5 >= -1
 idk_0!29!1: y_1!5_2!5 - x_1!5 <= 0
 idk_0!29!2: y_1!5_2!5 - x_2!5 <= 0
 sum_0!30: y_1!6_2!5 - x_1!6 - x_2!5 >= -1
 idk_0!30!1: y_1!6_2!5 - x_1!6 <= 0
 idk_0!30!2: y_1!6_2!5 - x_2!5 <= 0
 sum_0!31: y_1!1_2!6 - x_1!1 - x_2!6 >= -1
 idk_0!31!1: y_1!1_2!6 - x_1!1 <= 0
 idk_0!31!2: y_1!1_2!6 - x_2!6 <= 0
 sum_0!32: y_1!2_2!6 - x_1!2 - x_2!6 >= -1
 idk_0!32!1: y_1!2_2!6 - x_1!2 <= 0
 idk_0!32!2: y_1!2_2!6 - x_2!6 <= 0
 sum_0!33: y_1!3_2!6 - x_1!3 - x_2!6 >= -1
 idk_0!33!1: y_1!3_2!6 - x_1!3 <= 0
 idk_0!33!2: y_1!3_2!6 - x_2!6 <= 0
 sum_0!34: y_1!4_2!6 - x_1!4 - x_2!6 >= -1
 idk_0!34!1: y_1!4_2!6 - x_1!4 <= 0
 idk_0!34!2: y_1!4_2!6 - x_2!6 <= 0
 sum_0!35: y_1!5_2!6 - x_1!5 - x_2!6 >= -1
 idk_0!35!1: y_1!5_2!6 - x_1!5 <= 0
 idk_0!35!2: y_1!5_2!6 - x_2!6 <= 0
 sum_0!36: y_1!6_2!6 - x_1!6 - x_2!6 >= -1
 idk_0!36!1: y_1!6_2!6 - x_1!6 <= 0
 idk_0!36!2: y_1!6_2!6 - x_2!6 <= 0
 epc_1!1: -86.35798926354886 y_0!1_2!1 -73.25741210311712 y_0!2_2!1 +1.5609574585310924 y_0!3_2!1 +58.54665486395254 y_0!4_2!1 -80.94028686007152 y_0!5_2!1 +40.60882745793924 y_0!6_2!1 +30.205741291997015 y_0!1_2!2 -88.9338160839703 y_0!2_2!2 +60.28165093426162 y_0!3_2!2 -25.587697804151503 y_0!4_2!2 -50.5487226621435 y_0!5_2!2 +99.39691547491566 y_0!6_2!2 +36.85091130587875 y_0!1_2!3 +19.511829786989708 y_0!2_2!3 +97.44602833378485 y_0!3_2!3 +38.147754362689795 y_0!4_2!3 -3.944188718880227 y_0!5_2!3 -11.269870517896166 y_0!6_2!3 +64.76277953401302 y_0!1_2!4 +89.53835662084128 y_0!2_2!4 +70.68452705941081 y_0!3_2!4 -13.478831593924696 y_0!4_2!4 -83.31219033362329 y_0!5_2!4 +72.34615212967194 y_0!6_2!4 +99.97961755320856 y_0!1_2!5 +49.86892861796855 y_0!2_2!5 -80.21405918102784 y_0!3_2!5 -99.4623949681627 y_0!4_2!5 +59.2413411535903 y_0!5_2!5 -60.833655626773364 y_0!6_2!5 +39.693510981275836 y_0!1_2!6 -35.00388932072309 y_0!2_2!6 -40.1138942453793 y_0!3_2!6 +95.04956098997997 y_0!4_2!6 -84.1016562199631 y_0!5_2!6 +28.464269236350816 y_0!6_2!6 + lambda_1!1 - mu_1 = 0
 epc_1!2: +98.113506519878 y_0!1_2!1 -19.035340576044717 y_0!2_2!1 -27.478525026392745 y_0!3_2!1 -10.146386795990452 y_0!4_2!1 -78.66567806260946 y_0!5_2!1 +77.65252768846804 y_0!6_2!1 +60.8739619710488 y_0!1_2!2 -50.670210324923474 y_0!2_2!2 +79.32007987838944 y_0!3_2!2 -57.40710792373767 y_0!4_2!2 -38.975231978023594 y_0!5_2!2 -11.38897741009734 y_0!6_2!2 +81.09980626623931 y_0!1_2!3 +48.802680331437784 y_0!2_2!3 -14.970329392717673 y_0!3_2!3 -1.2043680993453592 y_0!4_2!3 -30.333231076544436 y_0!5_2!3 +55.05117465264743 y_0!6_2!3 +60.091311044759635 y_0!1_2!4 +2.2659728253815956 y_0!2_2!4 +5.946126031563082 y_0!3_2!4 +56.50702306620502 y_0!4_2!4 -5.92564013139895 y_0!5_2!4 -58.24839822628287 y_0!6_2!4 +55.334219061526426 y_0!1_2!5 +53.41266795556197 y_0!2_2!5 -75.91162262219001 y_0!3_2!5 -97.15248787570926 y_0!4_2!5 -88.76608787448458 y_0!5_2!5 +42.797086504666765 y_0!6_2!5 +46.934595974018805 y_0!1_2!6 -21.601065742139 y_0!2_2!6 +43.75140823600276 y_0!3_2!6 +26.284062845737438 y_0!4_2!6 +60.410703800513545 y_0!5_2!6 +5.794901503786761 y_0!6_2!6 + lambda_1!2 - mu_1 = 0
 epc_1!3: +12.801113316953177 y_0!1_2!1 -59.901370164128195 y_0!2_2!1 -36.67914111443107 y_0!3_2!1 +18.759023170786975 y_0!4_2!1 -29.78815311349412 y_0!5_2!1 +3.4733302806600648 y_0!6_2!1 -44.76533095755166 y_0!1_2!2 +47.85652911358474 y_0!2_2!2 +38.820645512370646 y_0!3_2!2 +93.75756395292922 y_0!4_2!2 -53.4923410074241 y_0!5_2!2 +5.194790341599642 y_0!6_2!2 -64.72862127938828 y_0!1_2!3 -26.17636251474258 y_0!2_2!3 -24.382268660204815 y_0!3_2!3 -4.0596293627730375 y_0!4_2!3 +72.0340304577507 y_0!5_2!3 +16.077155932204718 y_0!6_2!3 +31.39521639792153 y_0!1_2!4 +40.164786883221524 y_0!2_2!4 +2.040068540164569 y_0!3_2!4 +2.185573689655527 y_0!4_2!4 +15.606169567358336 y_0!5_2!4 -76.57200739158587 y_0!6_2!4 +18.515965470172873 y_0!1_2!5 -13.012421295318589 y_0!2_2!5 +43.00891323983231 y_0!3_2!5 +49.27506043226157 y_0!4_2!5 +34.4709503565806 y_0!5_2!5 -79.86618023904298 y_0!6_2!5 +30.7181997035143 y_0!1_2!6 -17.74287929025644 y_0!2_2!6 +81.53173967899082 y_0!3_2!6 -37.82789661841379 y_0!4_2!6 +40.267308258404796 y_0!5_2!6 -29.389355992039995 y_0!6_2!6 + lambda_1!3 - mu_1 = 0
 epc_1!4: +2.2864866691486725 y_0!1_2!1 +31.335593497618362 y_0!2_2!1 -31.094599484834063 y_0!3_2!1 +19.04248619074845 y_0!4_2!1 +38.92069886986772 y_0!5_2!1 -75.6562707920248 y_0!6_2!1 +50.126318617654704 y_0!1_2!2 -63.64002005214249 y_0!2_2!2 +15.233556325651449 y_0!3_2!2 -24.786874304311652 y_0!4_2!2 -11.229142066195564 y_0!5_2!2 -11.41139281396839 y_0!6_2!2 +96.05494361572093 y_0!1_2!3 -12.154205227595028 y_0!2_2!3 +51.19013227437887 y_0!3_2!3 -11.03711048009572 y_0!4_2!3 +19.374469441225784 y_0!5_2!3 +39.39453971090478 y_0!6_2!3 -28.42182230235086 y_0!1_2!4 +36.34328155010627 y_0!2_2!4 -12.628094445819741 y_0!3_2!4 +50.3802103268458 y_0!4_2!4 +92.41457731850323 y_0!5_2!4 -46.275877710382154 y_0!6_2!4 +44.60116205030192 y_0!1_2!5 -84.15068343587451 y_0!2_2!5 +17.711772262661412 y_0!3_2!5 +47.869095790051176 y_0!4_2!5 -67.65787976444564 y_0!5_2!5 -46.26769350186952 y_0!6_2!5 +39.06127742643736 y_0!1_2!6 -87.62928372586592 y_0!2_2!6 +72.58001316501051 y_0!3_2!6 +40.129372696489156 y_0!4_2!6 -8.308443158062744 y_0!5_2!6 -59.68366655975268 y_0!6_2!6 + lambda_1!4 - mu_1 = 0
 epc_1!5: +70.11894815406862 y_0!1_2!1 +96.98894829143379 y_0!2_2!1 +33.72837899790869 y_0!3_2!1 +75.94961916532588 y_0!4_2!1 +95.4264160179768 y_0!5_2!1 +90.65687997592258 y_0!6_2!1 +15.292335674645457 y_0!1_2!2 +84.01787205846111 y_0!2_2!2 +81.74009423275251 y_0!3_2!2 +15.28196573440161 y_0!4_2!2 +13.685145737175006 y_0!5_2!2 -12.816047206575348 y_0!6_2!2 +98.84889937115699 y_0!1_2!3 -93.84695036901579 y_0!2_2!3 +11.313423230335289 y_0!3_2!3 -45.16454253700366 y_0!4_2!3 -77.13985451349757 y_0!5_2!3 +80.39135389419789 y_0!6_2!3 +86.83445688564672 y_0!1_2!4 +55.64756479031948 y_0!2_2!4 +28.22912212412379 y_0!3_2!4 +8.293054602343133 y_0!4_2!4 +93.02989273740019 y_0!5_2!4 -45.56659326200836 y_0!6_2!4 +47.13105187073825 y_0!1_2!5 -86.47201591372601 y_0!2_2!5 -96.87898140516909 y_0!3_2!5 +47.900295010401464 y_0!4_2!5 -18.246644640760266 y_0!5_2!5 +3.077040030951167 y_0!6_2!5 -45.70747570476543 y_0!1_2!6 -87.05024362064155 y_0!2_2!6 +22.556109476296143 y_0!3_2!6 -40.07067262317301 y_0!4_2!6 -70.35247103557205 y_0!5_2!6 -51.12064079559189 y_0!6_2!6 + lambda_1!5 - mu_1 = 0
 epc_1!6: -65.88849135978853 y_0!1_2!1 +99.26216099324651 y_0!2_2!1 -45.59795472979671 y_0!3_2!1 -36.90029076647867 y_0!4_2!1 +62.18334750823911 y_0!5_2!1 +27.084364909275465 y_0!6_2!1 -76.82239351716012 y_0!1_2!2 -61.48462338427889 y_0!2_2!2 -4.475725127967479 y_0!3_2!2 +11.033722889808814 y_0!4_2!2 -73.02657094465457 y_0!5_2!2 -46.30361394442881 y_0!6_2!2 -57.02648104145418 y_0!1_2!3 +25.21546484475428 y_0!2_2!3 +38.19097625537296 y_0!3_2!3 +75.58060663413954 y_0!4_2!3 -6.860854026467123 y_0!5_2!3 -81.36481275894924 y_0!6_2!3 -18.53089643539508 y_0!1_2!4 +54.39327637701467 y_0!2_2!4 +40.25102759356682 y_0!3_2!4 -51.28090882959637 y_0!4_2!4 -20.234482493867986 y_0!5_2!4 +8.079776519359598 y_0!6_2!4 +78.1696253947234 y_0!1_2!5 -80.02737606548692 y_0!2_2!5 -90.02757855432768 y_0!3_2!5 -50.29018828271434 y_0!4_2!5 +1.1097117328682913 y_0!5_2!5 -94.6075111123692 y_0!6_2!5 -52.66874683225402 y_0!1_2!6 -74.94748466651714 y_0!2_2!6 -0.46662164597934463 y_0!3_2!6 +87.39361240315756 y_0!4_2!6 +88.36180138196835 y_0!5_2!6 +8.849946924526321 y_0!6_2!6 + lambda_1!6 - mu_1 = 0
 dc_1: x_1!1 + x_1!2 + x_1!3 + x_1!4 + x_1!5 + x_1!6 = 1
 bc_1!1: lambda_1!1 +299.94999985684353 x_1!1 <= 299.94999985684353
 bc_1!2: lambda_1!2 +299.94999985684353 x_1!2 <= 299.94999985684353
 bc_1!3: lambda_1!3 +299.94999985684353 x_1!3 <= 299.94999985684353
 bc_1!4: lambda_1!4 +299.94999985684353 x_1!4 <= 299.94999985684353
 bc_1!5: lambda_1!5 +299.94999985684353 x_1!5 <= 299.94999985684353
 bc_1!6: lambda_1!6 +299.94999985684353 x_1!6 <= 299.94999985684353
 sum_1!1: y_0!1_2!1 - x_0!1 - x_2!1 >= -1
 idk_1!1!0: y_0!1_2!1 - x_0!1 <= 0
 idk_1!1!2: y_0!1_2!1 - x_2!1 <= 0
 sum_1!2: y_0!2_2!1 - x_0!2 - x_2!1 >= -1
 idk_1!2!0: y_0!2_2!1 - x_0!2 <= 0
 idk_1!2!2: y_0!2_2!1 - x_2!1 <= 0
 sum_1!3: y_0!3_2!1 - x_0!3 - x_2!1 >= -1
 idk_1!3!0: y_0!3_2!1 - x_0!3 <= 0
 idk_1!3!2: y_0!3_2!1 - x_2!1 <= 0
 sum_1!4: y_0!4_2!1 - x_0!4 - x_2!1 >= -1
 idk_1!4!0: y_0!4_2!1 - x_0!4 <= 0
 idk_1!4!2: y_0!4_2!1 - x_2!1 <= 0
 sum_1!5: y_0!5_2!1 - x_0!5 - x_2!1 >= -1
 idk_1!5!0: y_0!5_2!1 - x_0!5 <= 0
 idk_1!5!2: y_0!5_2!1 - x_2!1 <= 0
 sum_1!6: y_0!6_2!1 - x_0!6 - x_2!1 >= -1
 idk_1!6!0: y_0!6_2!1 - x_0!6 <= 0
 idk_1!6!2: y_0!6_2!1 - x_2!1 <= 0
 sum_1!7: y_0!1_2!2 - x_0!1 - x_2!2 >= -1
 idk_1!7!0: y_0!1_2!2 - x_0!1 <= 0
 idk_1!7!2: y_0!1_2!2 - x_2!2 <= 0
 sum_1!8: y_0!2_2!2 - x_0!2 - x_2!2 >= -1
 idk_1!8!0: y_0!2_2!2 - x_0!2 <= 0
 idk_1!8!2: y_0!2_2!2 - x_2!2 <= 0
 sum_1!9: y_0!3_2!2 - x_0!3 - x_2!2 >= -1
 idk_1!9!0: y_0!3_2!2 - x_0!3 <= 0
 idk_1!9!2: y_0!3_2!2 - x_2!2 <= 0
 sum_1!10: y_0!4_2!2 - x_0!4 - x_2!2 >= -1
 idk_1!10!0: y_0!4_2!2 - x_0!4 <= 0
 idk_1!10!2: y_0!4_2!2 - x_2!2 <= 0
 sum_1!11: y_0!5_2!2 - x_0!5 - x_2!2 >= -1
 idk_1!11!0: y_0!5_2!2 - x_0!5 <= 0
 idk_1!11!2: y_0!5_2!2 - x_2!2 <= 0
 sum_1!12: y_0!6_2!2 - x_0!6 - x_2!2 >= -1
 idk_1!12!0: y_0!6_2!2 - x_0!6 <= 0
 idk_1!12!2: y_0!6_2!2 - x_2!2 <= 0
 sum_1!13: y_0!1_2!3 - x_0!1 - x_2!3 >= -1
 idk_1!13!0: y_0!1_2!3 - x_0!1 <= 0
 idk_1!13!2: y_0!1_2!3 - x_2!3 <= 0
 sum_1!14: y_0!2_2!3 - x_0!2 - x_2!3 >= -1
 idk_1!14!0: y_0!2_2!3 - x_0!2 <= 0
 idk_1!14!2: y_0!2_2!3 - x_2!3 <= 0
 sum_1!15: y_0!3_2!3 - x_0!3 - x_2!3 >= -1
 idk_1!15!0: y_0!3_2!3 - x_0!3 <= 0
 idk_1!15!2: y_0!3_2!3 - x_2!3 <= 0
 sum_1!16: y_0!4_2!3 - x_0!4 - x_2!3 >= -1
 idk_1!16!0: y_0!4_2!3 - x_0!4 <= 0
 idk_1!16!2: y_0!4_2!3 - x_2!3 <= 0
 sum_1!17: y_0!5_2!3 - x_0!5 - x_2!3 >= -1
 idk_1!17!0: y_0!5_2!3 - x_0!5 <= 0
 idk_1!17!2: y_0!5_2!3 - x_2!3 <= 0
 sum_1!18: y_0!6_2!3 - x_0!6 - x_2!3 >= -1
 idk_1!18!0: y_0!6_2!3 - x_0!6 <= 0
 idk_1!18!2: y_0!6_2!3 - x_2!3 <= 0
 sum_1!19: y_0!1_2!4 - x_0!1 - x_2!4 >= -1
 idk_1!19!0: y_0!1_2!4 - x_0!1 <= 0
 idk_1!19!2: y_0!1_2!4 - x_2!4 <= 0
 sum_1!20: y_0!2_2!4 - x_0!2 - x_2!4 >= -1
 idk_1!20!0: y_0!2_2!4 - x_0!2 <= 0
 idk_1!20!2: y_0!2_2!4 - x_2!4 <= 0
 sum_1!21: y_0!3_2!4 - x_0!3 - x_2!4 >= -1
 idk_1!21!0: y_0!3_2!4 - x_0!3 <= 0
 idk_1!21!2: y_0!3_2!4 - x_2!4 <= 0
 sum_1!22: y_0!4_2!4 - x_0!4 - x_2!4 >= -1
 idk_1!22!0: y_0!4_2!4 - x_0!4 <= 0
 idk_1!22!2: y_0!4_2!4 - x_2!4 <= 0
 sum_1!23: y_0!5_2!4 - x_0!5 - x_2!4 >= -1
 idk_1!23!0: y_0!5_2!4 - x_0!5 <= 0
 idk_1!23!2: y_0!5_2!4 - x_2!4 <= 0
 sum_1!24: y_0!6_2!4 - x_0!6 - x_2!4 >= -1
 idk_1!24!0: y_0!6_2!4 - x_0!6 <= 0
 idk_1!24!2: y_0!6_2!4 - x_2!4 <= 0
 sum_1!25: y_0!1_2!5 - x_0!1 - x_2!5 >= -1
 idk_1!25!0: y_0!1_2!5 - x_0!1 <= 0
 idk_1!25!2: y_0!1_2!5 - x_2!5 <= 0
 sum_1!26: y_0!2_2!5 - x_0!2 - x_2!5 >= -1
 idk_1!26!0: y_0!2_2!5 - x_0!2 <= 0
 idk_1!26!2: y_0!2_2!5 - x_2!5 <= 0
 sum_1!27: y_0!3_2!5 - x_0!3 - x_2!5 >= -1
 idk_1!27!0: y_0!3_2!5 - x_0!3 <= 0
 idk_1!27!2: y_0!3_2!5 - x_2!5 <= 0
 sum_1!28: y_0!4_2!5 - x_0!4 - x_2!5 >= -1
 idk_1!28!0: y_0!4_2!5 - x_0!4 <= 0
 idk_1!28!2: y_0!4_2!5 - x_2!5 <= 0
 sum_1!29: y_0!5_2!5 - x_0!5 - x_2!5 >= -1
 idk_1!29!0: y_0!5_2!5 - x_0!5 <= 0
 idk_1!29!2: y_0!5_2!5 - x_2!5 <= 0
 sum_1!30: y_0!6_2!5 - x_0!6 - x_2!5 >= -1
 idk_1!30!0: y_0!6_2!5 - x_0!6 <= 0
 idk_1!30!2: y_0!6_2!5 - x_2!5 <= 0
 sum_1!31: y_0!1_2!6 - x_0!1 - x_2!6 >= -1
 idk_1!31!0: y_0!1_2!6 - x_0!1 <= 0
 idk_1!31!2: y_0!1_2!6 - x_2!6 <= 0
 sum_1!32: y_0!2_2!6 - x_0!2 - x_2!6 >= -1
 idk_1!32!0: y_0!2_2!6 - x_0!2 <= 0
 idk_1!32!2: y_0!2_2!6 - x_2!6 <= 0
 sum_1!33: y_0!3_2!6 - x_0!3 - x_2!6 >= -1
 idk_1!33!0: y_0!3_2!6 - x_0!3 <= 0
 idk_1!33!2: y_0!3_2!6 - x_2!6 <= 0
 sum_1!34: y_0!4_2!6 - x_0!4 - x_2!6 >= -1
 idk_1!34!0: y_0!4_2!6 - x_0!4 <= 0
 idk_1!34!2: y_0!4_2!6 - x_2!6 <= 0
 sum_1!35: y_0!5_2!6 - x_0!5 - x_2!6 >= -1
 idk_1!35!0: y_0!5_2!6 - x_0!5 <= 0
 idk_1!35!2: y_0!5_2!6 - x_2!6 <= 0
 sum_1!36: y_0!6_2!6 - x_0!6 - x_2!6 >= -1
 idk_1!36!0: y_0!6_2!6 - x_0!6 <= 0
 idk_1!36!2: y_0!6_2!6 - x_2!6 <= 0
 epc_2!1: -53.22679448863521 y_0!1_1!1 +74.86745549961572 y_0!2_1!1 -3.4869134863245534 y_0!3_1!1 +8.582004070588752 y_0!4_1!1 +51.82853324753381 y_0!5_1!1 -84.43522615058777 y_0!6_1!1 +61.7561196877775 y_0!1_1!2 -6.764587326484019 y_0!2_1!2 -74.48095428375119 y_0!3_1!2 +36.42287016637826 y_0!4_1!2 -80.28971955335413 y_0!5_1!2 +82.0147900843968 y_0!6_1!2 -47.05551071881033 y_0!1_1!3 -26.02168169761427 y_0!2_1!3 -48.15783920750651 y_0!3_1!3 +54.03215976991933 y_0!4_1!3 +15.117298944709873 y_0!5_1!3 +4.457160724464188 y_0!6_1!3 -36.84947169015666 y_0!1_1!4 -38.17823476935946 y_0!2_1!4 +78.46920642914208 y_0!3_1!4 -54.31686240248246 y_0!4_1!4 +44.62644497260294 y_0!5_1!4 -61.605952702069146 y_0!6_1!4 +10.549019354540448 y_0!1_1!5 -33.336382318151564 y_0!2_1!5 +44.86046563677709 y_0!3_1!5 -99.97424260784011 y_0!4_1!5 +7.2081347650373715 y_0!5_1!5 -54.72328858095301 y_0!6_1!5 +5.331823260762647 y_0!1_1!6 -99.45820085227413 y_0!2_1!6 +78.4845326899667 y_0!3_1!6 +81.08477984070416 y_0!4_1!6 -52.29641495687372 y_0!5_1!6 +56.32100574690347 y_0!6_1!6 + lambda_2!1 - mu_2 = 0
 epc_2!2: +96.06000379569124 y_0!1_1!1 +80.65106221223559 y_0!2_1!1 -71.01321552929139 y_0!3_1!1 +68.48454811532449 y_0!4_1!1 -45.420624676628506 y_0!5_1!1 +86.83761837347953 y_0!6_1!1 -98.27434331986684 y_0!1_1!2 +19.702315919509545 y_0!2_1!2 +42.28470513181884 y_0!3_1!2 +21.41449870049037 y_0!4_1!2 +31.395134838230717 y_0!5_1!2 -82.22087895198894 y_0!6_1!2 +53.331287271986184 y_0!1_1!3 -48.08849115038796 y_0!2_1!3 -68.0091773491908 y_0!3_1!3 -3.340855391796268 y_0!4_1!3 +4.816572346529895 y_0!5_1!3 +78.99548856357788 y_0!6_1!3 -16.66925738539487 y_0!1_1!4 +67.71362382591985 y_0!2_1!4 -54.033019925921046 y_0!3_1!4 -30.242284456698016 y_0!4_1!4 +89.8771937481078 y_0!5_1!4 +40.15335161474397 y_0!6_1!4 +65.09182398212945 y_0!1_1!5 -64.85258521779862 y_0!2_1!5 -69.07385643838826 y_0!3_1!5 +99.13407342074342 y_0!4_1!5 -88.17255414229047 y_0!5_1!5 -33.61089286263994 y_0!6_1!5 -64.19935947140885 y_0!1_1!6 -56.40054072190102 y_0!2_1!6 +57.85892448989398 y_0!3_1!6 +5.572950037646734 y_0!4_1!6 +95.22374443767768 y_0!5_1!6 -56.867091535918405 y_0!6_1!6 + lambda_2!2 - mu_2 = 0
 epc_2!3: -81.2794432012154 y_0!1_1!1 -70.29112863308175 y_0!2_1!1 +91.33560559062889 y_0!3_1!1 +74.06601567855927 y_0!4_1!1 +52.44060373138967 y_0!5_1!1 +75.3868230432796 y_0!6_1!1 +93.85836528997766 y_0!1_1!2 +39.81797804489216 y_0!2_1!2 +37.70967510788367 y_0!3_1!2 +22.78702669417345 y_0!4_1!2 -71.29842904387245 y_0!5_1!2 +68.91697462865616 y_0!6_1!2 +14.91627939518932 y_0!1_1!3 +93.13571566694765 y_0!2_1!3 -22.160102124832193 y_0!3_1!3 -83.6190748948207 y_0!4_1!3 -52.19291020218477 y_0!5_1!3 -7.196631082149679 y_0!6_1!3 -84.41594042110762 y_0!1_1!4 -29.88827094927599 y_0!2_1!4 +31.693633388367715 y_0!3_1!4 +60.09401554723783 y_0!4_1!4 +26.40478079044793 y_0!5_1!4 +83.68359246558751 y_0!6_1!4 +36.0409452370767 y_0!1_1!5 +37.375750646332904 y_0!2_1!5 -16.741175749869683 y_0!3_1!5 +20.382593038306695 y_0!4_1!5 -75.06187023000035 y_0!5_1!5 +1.5542211771720957 y_0!6_1!5 -7.094891129235492 y_0!1_1!6 +0.5812620517926774 y_0!2_1!6 +48.364482211525996 y_0!3_1!6 +39.992288324784056 y_0!4_1!6 -64.0119820124232 y_0!5_1!6 -4.491533941207891 y_0!6_1!6 + lambda_2!3 - mu_2 = 0
 epc_2!4: -59.67083878895305 y_0!1_1!1 +56.8307316088717 y_0!2_1!1 -55.29593895742779 y_0!3_1!1 -94.79855076932652 y_0!4_1!1 +96.87629971280592 y_0!5_1!1 -63.73360674491384 y_0!6_1!1 -30.342900983464887 y_0!1_1!2 -3.096529875873017 y_0!2_1!2 +37.61160111704575 y_0!3_1!2 -25.304273144310386 y_0!4_1!2 +90.04644183822376 y_0!5_1!2 -37.60297442574851 y_0!6_1!2 +78.8204268833909 y_0!1_1!3 +22.733240670431826 y_0!2_1!3 +17.62117651246018 y_0!3_1!3 +78.73922633177034 y_0!4_1!3 -35.58843090261344 y_0!5_1!3 -49.03403497734191 y_0!6_1!3 +34.87307291547077 y_0!1_1!4 +26.59239941096419 y_0!2_1!4 +12.834885024590676 y_0!3_1!4 +69.90654797142363 y_0!4_1!4 +91.7296291895295 y_0!5_1!4 -66.18036240133958 y_0!6_1!4 -56.214981465523486 y_0!1_1!5 -5.04079328790219 y_0!2_1!5 -37.45224919000911 y_0!3_1!5 -30.758476988089242 y_0!4_1!5 +47.91757827121228 y_0!5_1!5 -48.68567464065612 y_0!6_1!5 +36.4976388298401 y_0!1_1!6 -87.57319326255023 y_0!2_1!6 +55.96808357667854 y_0!3_1!6 +61.53898991722426 y_0!4_1!6 +79.46560710320358 y_0!5_1!6 -29.883548698713682 y_0!6_1!6 + lambda_2!4 - mu_2 = 0
 epc_2!5: -49.42179672997178 y_0!1_1!1 -49.76760900270101 y_0!2_1!1 -35.60650085011932 y_0!3_1!1 +98.35691348441634 y_0!4_1!1 +44.79774215425317 y_0!5_1!1 +35.46655386744882 y_0!6_1!1 -80.48847982193516 y_0!1_1!2 +21.645219448528678 y_0!2_1!2 -74.35506549063464 y_0!3_1!2 -44.165619009875016 y_0!4_1!2 +90.2103495494982 y_0!5_1!2 +16.364806288175444 y_0!6_1!2 -70.72828106884748 y_0!1_1!3 -95.2213545309774 y_0!2_1!3 -49.66261654733542 y_0!3_1!3 -54.48218063431065 y_0!4_1!3 +76.194657593349 y_0!5_1!3 +10.477029922481279 y_0!6_1!3 -67.50882523150145 y_0!1_1!4 -4.7640001517344785 y_0!2_1!4 +50.71624886688474 y_0!3_1!4 -90.09005130980785 y_0!4_1!4 -25.573000036277335 y_0!5_1!4 +70.7789247483797 y_0!6_1!4 +58.07548475637475 y_0!1_1!5 -80.16056712549059 y_0!2_1!5 +99.97575724900344 y_0!3_1!5 +60.704883386564404 y_0!4_1!5 +36.03050758212561 y_0!5_1!5 -94.72111605443985 y_0!6_1!5 +67.91727556947257 y_0!1_1!6 -27.37373759702251 y_0!2_1!6 -65.50969446016657 y_0!3_1!6 +87.63509594692314 y_0!4_1!6 -68.96167064861179 y_0!5_1!6 +82.43787683420939 y_0!6_1!6 + lambda_2!5 - mu_2 = 0
 epc_2!6: +7.476479704024001 y_0!1_1!1 +20.055549121258593 y_0!2_1!1 +50.14456260041524 y_0!3_1!1 -78.86676669515538 y_0!4_1!1 +86.11012033770643 y_0!5_1!1 -13.384559978693972 y_0!6_1!1 -95.91524025658234 y_0!1_1!2 -50.69974203940946 y_0!2_1!2 +19.482944725006462 y_0!3_1!2 -45.16945517472071 y_0!4_1!2 -73.11519016384487 y_0!5_1!2 -60.885359102893744 y_0!6_1!2 +82.18589632201179 y_0!1_1!3 -72.41639199914907 y_0!2_1!3 -13.122117470394116 y_0!3_1!3 -2.874559159541647 y_0!4_1!3 -47.067587354210374 y_0!5_1!3 -99.09660260995936 y_0!6_1!3 +0.2563244432008247 y_0!1_1!4 +18.354220971825924 y_0!2_1!4 +68.12774858901466 y_0!3_1!4 +38.13724770789807 y_0!4_1!4 -57.24012354389247 y_0!5_1!4 -36.794537041614284 y_0!6_1!4 -52.6003036130138 y_0!1_1!5 -81.09059881231049 y_0!2_1!5 -11.746104370741975 y_0!3_1!5 +93.41273378557818 y_0!4_1!5 +75.0201189819575 y_0!5_1!5 +12.859056608512631 y_0!6_1!5 +61.74030424828166 y_0!1_1!6 -8.278620609760964 y_0!2_1!6 -98.18910487451602 y_0!3_1!6 +63.50356845324359 y_0!4_1!6 -53.11700226795373 y_0!5_1!6 +22.235388747175918 y_0!6_1!6 + lambda_2!6 - mu_2 = 0
 dc_2: x_2!1 + x_2!2 + x_2!3 + x_2!4 + x_2!5 + x_2!6 = 1
 bc_2!1: lambda_2!1 +299.94999985684353 x_2!1 <= 299.94999985684353
 bc_2!2: lambda_2!2 +299.94999985684353 x_2!2 <= 299.94999985684353
 bc_2!3: lambda_2!3 +299.94999985684353 x_2!3 <= 299.94999985684353
 bc_2!4: lambda_2!4 +299.94999985684353 x_2!4 <= 299.94999985684353
 bc_2!5: lambda_2!5 +299.94999985684353 x_2!5 <= 299.94999985684353
 bc_2!6: lambda_2!6 +299.94999985684353 x_2!6 <= 299.94999985684353
 sum_2!1: y_0!1_1!1 - x_0!1 - x_1!1 >= -1
 idk_2!1!0: y_0!1_1!1 - x_0!1 <= 0
 idk_2!1!1: y_0!1_1!1 - x_1!1 <= 0
 sum_2!2: y_0!2_1!1 - x_0!2 - x_1!1 >= -1
 idk_2!2!0: y_0!2_1!1 - x_0!2 <= 0
 idk_2!2!1: y_0!2_1!1 - x_1!1 <= 0
 sum_2!3: y_0!3_1!1 - x_0!3 - x_1!1 >= -1
 idk_2!3!0: y_0!3_1!1 - x_0!3 <= 0
 idk_2!3!1: y_0!3_1!1 - x_1!1 <= 0
 sum_2!4: y_0!4_1!1 - x_0!4 - x_1!1 >= -1
 idk_2!4!0: y_0!4_1!1 - x_0!4 <= 0
 idk_2!4!1: y_0!4_1!1 - x_1!1 <= 0
 sum_2!5: y_0!5_1!1 - x_0!5 - x_1!1 >= -1
 idk_2!5!0: y_0!5_1!1 - x_0!5 <= 0
 idk_2!5!1: y_0!5_1!1 - x_1!1 <= 0
 sum_2!6: y_0!6_1!1 - x_0!6 - x_1!1 >= -1
 idk_2!6!0: y_0!6_1!1 - x_0!6 <= 0
 idk_2!6!1: y_0!6_1!1 - x_1!1 <= 0
 sum_2!7: y_0!1_1!2 - x_0!1 - x_1!2 >= -1
 idk_2!7!0: y_0!1_1!2 - x_0!1 <= 0
 idk_2!7!1: y_0!1_1!2 - x_1!2 <= 0
 sum_2!8: y_0!2_1!2 - x_0!2 - x_1!2 >= -1
 idk_2!8!0: y_0!2_1!2 - x_0!2 <= 0
 idk_2!8!1: y_0!2_1!2 - x_1!2 <= 0
 sum_2!9: y_0!3_1!2 - x_0!3 - x_1!2 >= -1
 idk_2!9!0: y_0!3_1!2 - x_0!3 <= 0
 idk_2!9!1: y_0!3_1!2 - x_1!2 <= 0
 sum_2!10: y_0!4_1!2 - x_0!4 - x_1!2 >= -1
 idk_2!10!0: y_0!4_1!2 - x_0!4 <= 0
 idk_2!10!1: y_0!4_1!2 - x_1!2 <= 0
 sum_2!11: y_0!5_1!2 - x_0!5 - x_1!2 >= -1
 idk_2!11!0: y_0!5_1!2 - x_0!5 <= 0
 idk_2!11!1: y_0!5_1!2 - x_1!2 <= 0
 sum_2!12: y_0!6_1!2 - x_0!6 - x_1!2 >= -1
 idk_2!12!0: y_0!6_1!2 - x_0!6 <= 0
 idk_2!12!1: y_0!6_1!2 - x_1!2 <= 0
 sum_2!13: y_0!1_1!3 - x_0!1 - x_1!3 >= -1
 idk_2!13!0: y_0!1_1!3 - x_0!1 <= 0
 idk_2!13!1: y_0!1_1!3 - x_1!3 <= 0
 sum_2!14: y_0!2_1!3 - x_0!2 - x_1!3 >= -1
 idk_2!14!0: y_0!2_1!3 - x_0!2 <= 0
 idk_2!14!1: y_0!2_1!3 - x_1!3 <= 0
 sum_2!15: y_0!3_1!3 - x_0!3 - x_1!3 >= -1
 idk_2!15!0: y_0!3_1!3 - x_0!3 <= 0
 idk_2!15!1: y_0!3_1!3 - x_1!3 <= 0
 sum_2!16: y_0!4_1!3 - x_0!4 - x_1!3 >= -1
 idk_2!16!0: y_0!4_1!3 - x_0!4 <= 0
 idk_2!16!1: y_0!4_1!3 - x_1!3 <= 0
 sum_2!17: y_0!5_1!3 - x_0!5 - x_1!3 >= -1
 idk_2!17!0: y_0!5_1!3 - x_0!5 <= 0
 idk_2!17!1: y_0!5_1!3 - x_1!3 <= 0
 sum_2!18: y_0!6_1!3 - x_0!6 - x_1!3 >= -1
 idk_2!18!0: y_0!6_1!3 - x_0!6 <= 0
 idk_2!18!1: y_0!6_1!3 - x_1!3 <= 0
 sum_2!19: y_0!1_1!4 - x_0!1 - x_1!4 >= -1
 idk_2!19!0: y_0!1_1!4 - x_0!1 <= 0
 idk_2!19!1: y_0!1_1!4 - x_1!4 <= 0
 sum_2!20: y_0!2_1!4 - x_0!2 - x_1!4 >= -1
 idk_2!20!0: y_0!2_1!4 - x_0!2 <= 0
 idk_2!20!1: y_0!2_1!4 - x_1!4 <= 0
 sum_2!21: y_0!3_1!4 - x_0!3 - x_1!4 >= -1
 idk_2!21!0: y_0!3_1!4 - x_0!3 <= 0
 idk_2!21!1: y_0!3_1!4 - x_1!4 <= 0
 sum_2!22: y_0!4_1!4 - x_0!4 - x_1!4 >= -1
 idk_2!22!0: y_0!4_1!4 - x_0!4 <= 0
 idk_2!22!1: y_0!4_1!4 - x_1!4 <= 0
 sum_2!23: y_0!5_1!4 - x_0!5 - x_1!4 >= -1
 idk_2!23!0: y_0!5_1!4 - x_0!5 <= 0
 idk_2!23!1: y_0!5_1!4 - x_1!4 <= 0
 sum_2!24: y_0!6_1!4 - x_0!6 - x_1!4 >= -1
 idk_2!24!0: y_0!6_1!4 - x_0!6 <= 0
 idk_2!24!1: y_0!6_1!4 - x_1!4 <= 0
 sum_2!25: y_0!1_1!5 - x_0!1 - x_1!5 >= -1
 idk_2!25!0: y_0!1_1!5 - x_0!1 <= 0
 idk_2!25!1: y_0!1_1!5 - x_1!5 <= 0
 sum_2!26: y_0!2_1!5 - x_0!2 - x_1!5 >= -1
 idk_2!26!0: y_0!2_1!5 - x_0!2 <= 0
 idk_2!26!1: y_0!2_1!5 - x_1!5 <= 0
 sum_2!27: y_0!3_1!5 - x_0!3 - x_1!5 >= -1
 idk_2!27!0: y_0!3_1!5 - x_0!3 <= 0
 idk_2!27!1: y_0!3_1!5 - x_1!5 <= 0
 sum_2!28: y_0!4_1!5 - x_0!4 - x_1!5 >= -1
 idk_2!28!0: y_0!4_1!5 - x_0!4 <= 0
 idk_2!28!1: y_0!4_1!5 - x_1!5 <= 0
 sum_2!29: y_0!5_1!5 - x_0!5 - x_1!5 >= -1
 idk_2!29!0: y_0!5_1!5 - x_0!5 <= 0
 idk_2!29!1: y_0!5_1!5 - x_1!5 <= 0
 sum_2!30: y_0!6_1!5 - x_0!6 - x_1!5 >= -1
 idk_2!30!0: y_0!6_1!5 - x_0!6 <= 0
 idk_2!30!1: y_0!6_1!5 - x_1!5 <= 0
 sum_2!31: y_0!1_1!6 - x_0!1 - x_1!6 >= -1
 idk_2!31!0: y_0!1_1!6 - x_0!1 <= 0
 idk_2!31!1: y_0!1_1!6 - x_1!6 <= 0
 sum_2!32: y_0!2_1!6 - x_0!2 - x_1!6 >= -1
 idk_2!32!0: y_0!2_1!6 - x_0!2 <= 0
 idk_2!32!1: y_0!2_1!6 - x_1!6 <= 0
 sum_2!33: y_0!3_1!6 - x_0!3 - x_1!6 >= -1
 idk_2!33!0: y_0!3_1!6 - x_0!3 <= 0
 idk_2!33!1: y_0!3_1!6 - x_1!6 <= 0
 sum_2!34: y_0!4_1!6 - x_0!4 - x_1!6 >= -1
 idk_2!34!0: y_0!4_1!6 - x_0!4 <= 0
 idk_2!34!1: y_0!4_1!6 - x_1!6 <= 0
 sum_2!35: y_0!5_1!6 - x_0!5 - x_1!6 >= -1
 idk_2!35!0: y_0!5_1!6 - x_0!5 <= 0
 idk_2!35!1: y_0!5_1!6 - x_1!6 <= 0
 sum_2!36: y_0!6_1!6 - x_0!6 - x_1!6 >= -1
 idk_2!36!0: y_0!6_1!6 - x_0!6 <= 0
 idk_2!36!1: y_0!6_1!6 - x_1!6 <= 0
Bounds
 mu_0 free
 mu_1 free
 mu_2 free
Binary
 x_0!1 x_0!2 x_0!3 x_0!4 x_0!5 x_0!6 x_1!1 x_1!2 x_1!3 x_1!4 x_1!5 x_1!6 x_2!1 x_2!2 x_2!3 x_2!4 x_2!5 x_2!6
End
